NAME /Users/henri/Research/solvers/instances/idol-instances/robust/collection/spp_dkp_Lefebvre_et_al_2026/shortest_path_10_6/uncertainty_sets/discrete_knapsack
ROWS
 N  OBJ
 L  primal_lower
COLUMNS
    MARKER    'MARKER'                 'INTORG'
    y[0,1]     OBJ        0
    y[0,1]     primal_lower -0.08
    y[0,2]     OBJ        0
    y[0,2]     primal_lower -3.94
    y[0,3]     OBJ        0
    y[0,3]     primal_lower -1.26
    y[0,4]     OBJ        0
    y[0,4]     primal_lower -1.32
    y[0,5]     OBJ        0
    y[0,5]     primal_lower -3.5
    y[0,6]     OBJ        0
    y[0,6]     primal_lower -1.43
    y[0,7]     OBJ        0
    y[0,7]     primal_lower -3.82
    y[0,8]     OBJ        0
    y[0,8]     primal_lower -1.98
    y[0,9]     OBJ        0
    y[0,9]     primal_lower -2.42
    y[1,0]     OBJ        0
    y[1,0]     primal_lower -1.58
    y[1,2]     OBJ        0
    y[1,2]     primal_lower -0.5
    y[1,3]     OBJ        0
    y[1,3]     primal_lower -0.63
    y[1,4]     OBJ        0
    y[1,4]     primal_lower -1.97
    y[1,6]     OBJ        0
    y[1,6]     primal_lower -3.23
    y[1,7]     OBJ        0
    y[1,7]     primal_lower -2.03
    y[1,8]     OBJ        0
    y[1,8]     primal_lower -2.62
    y[2,0]     OBJ        0
    y[2,0]     primal_lower -1.49
    y[2,1]     OBJ        0
    y[2,1]     primal_lower -2.01
    y[2,3]     OBJ        0
    y[2,3]     primal_lower -0.83
    y[2,4]     OBJ        0
    y[2,4]     primal_lower -1.81
    y[2,5]     OBJ        0
    y[2,5]     primal_lower -0.58
    y[2,6]     OBJ        0
    y[2,6]     primal_lower -0.16
    y[2,7]     OBJ        0
    y[2,7]     primal_lower -0.36
    y[2,8]     OBJ        0
    y[2,8]     primal_lower -0.94
    y[2,9]     OBJ        0
    y[2,9]     primal_lower -2.41
    y[3,0]     OBJ        0
    y[3,0]     primal_lower -2.89
    y[3,1]     OBJ        0
    y[3,1]     primal_lower -2.6
    y[3,2]     OBJ        0
    y[3,2]     primal_lower -2.54
    y[3,5]     OBJ        0
    y[3,5]     primal_lower -1.48
    y[3,7]     OBJ        0
    y[3,7]     primal_lower -1.68
    y[3,8]     OBJ        0
    y[3,8]     primal_lower -1.77
    y[4,0]     OBJ        0
    y[4,0]     primal_lower -3
    y[4,1]     OBJ        0
    y[4,1]     primal_lower -0.65
    y[4,2]     OBJ        0
    y[4,2]     primal_lower -3.48
    y[4,5]     OBJ        0
    y[4,5]     primal_lower -0.17
    y[4,6]     OBJ        0
    y[4,6]     primal_lower -2.71
    y[4,7]     OBJ        0
    y[4,7]     primal_lower -0.67
    y[4,8]     OBJ        0
    y[4,8]     primal_lower -3.41
    y[4,9]     OBJ        0
    y[4,9]     primal_lower -1.16
    y[5,0]     OBJ        0
    y[5,0]     primal_lower -3.41
    y[5,2]     OBJ        0
    y[5,2]     primal_lower -1.27
    y[5,3]     OBJ        0
    y[5,3]     primal_lower -2.88
    y[5,4]     OBJ        0
    y[5,4]     primal_lower -4.2
    y[5,7]     OBJ        0
    y[5,7]     primal_lower -4.06
    y[5,9]     OBJ        0
    y[5,9]     primal_lower -0.73
    y[6,0]     OBJ        0
    y[6,0]     primal_lower -1.49
    y[6,1]     OBJ        0
    y[6,1]     primal_lower -0.4
    y[6,2]     OBJ        0
    y[6,2]     primal_lower -3.06
    y[6,4]     OBJ        0
    y[6,4]     primal_lower -3
    y[6,7]     OBJ        0
    y[6,7]     primal_lower -4.02
    y[6,8]     OBJ        0
    y[6,8]     primal_lower -1.35
    y[6,9]     OBJ        0
    y[6,9]     primal_lower -0.8
    y[7,0]     OBJ        0
    y[7,0]     primal_lower -0.15
    y[7,1]     OBJ        0
    y[7,1]     primal_lower -1.64
    y[7,2]     OBJ        0
    y[7,2]     primal_lower -4.25
    y[7,3]     OBJ        0
    y[7,3]     primal_lower -2.56
    y[7,4]     OBJ        0
    y[7,4]     primal_lower -3.93
    y[7,5]     OBJ        0
    y[7,5]     primal_lower -2.29
    y[7,6]     OBJ        0
    y[7,6]     primal_lower -3.22
    y[7,8]     OBJ        0
    y[7,8]     primal_lower -1.69
    y[8,0]     OBJ        0
    y[8,0]     primal_lower -4.38
    y[8,1]     OBJ        0
    y[8,1]     primal_lower -1.73
    y[8,2]     OBJ        0
    y[8,2]     primal_lower -0.63
    y[8,3]     OBJ        0
    y[8,3]     primal_lower -4.01
    y[8,4]     OBJ        0
    y[8,4]     primal_lower -0.27
    y[8,6]     OBJ        0
    y[8,6]     primal_lower -0.4
    y[8,7]     OBJ        0
    y[8,7]     primal_lower -2.06
    y[9,0]     OBJ        0
    y[9,2]     OBJ        0
    y[9,2]     primal_lower -3.04
    y[9,4]     OBJ        0
    y[9,4]     primal_lower -1.68
    y[9,5]     OBJ        0
    y[9,5]     primal_lower -3.15
    y[9,6]     OBJ        0
    y[9,6]     primal_lower -2.68
    u[0,1]     OBJ        0
    u[0,1]     primal_lower 51
    u[0,2]     OBJ        0
    u[0,2]     primal_lower 25
    u[0,3]     OBJ        0
    u[0,3]     primal_lower 23
    u[0,4]     OBJ        0
    u[0,4]     primal_lower 10
    u[0,5]     OBJ        0
    u[0,5]     primal_lower 33
    u[0,6]     OBJ        0
    u[0,6]     primal_lower 67
    u[0,7]     OBJ        0
    u[0,7]     primal_lower 78
    u[0,8]     OBJ        0
    u[0,8]     primal_lower 75
    u[0,9]     OBJ        0
    u[0,9]     primal_lower 83
    u[1,0]     OBJ        0
    u[1,0]     primal_lower 33
    u[1,2]     OBJ        0
    u[1,2]     primal_lower 49
    u[1,3]     OBJ        0
    u[1,3]     primal_lower 92
    u[1,4]     OBJ        0
    u[1,4]     primal_lower 36
    u[1,6]     OBJ        0
    u[1,6]     primal_lower 9
    u[1,7]     OBJ        0
    u[1,7]     primal_lower 83
    u[1,8]     OBJ        0
    u[1,8]     primal_lower 63
    u[2,0]     OBJ        0
    u[2,0]     primal_lower 48
    u[2,1]     OBJ        0
    u[2,1]     primal_lower 74
    u[2,3]     OBJ        0
    u[2,3]     primal_lower 13
    u[2,4]     OBJ        0
    u[2,4]     primal_lower 86
    u[2,5]     OBJ        0
    u[2,5]     primal_lower 27
    u[2,6]     OBJ        0
    u[2,6]     primal_lower 42
    u[2,7]     OBJ        0
    u[2,7]     primal_lower 22
    u[2,8]     OBJ        0
    u[2,8]     primal_lower 74
    u[2,9]     OBJ        0
    u[2,9]     primal_lower 83
    u[3,0]     OBJ        0
    u[3,0]     primal_lower 26
    u[3,1]     OBJ        0
    u[3,1]     primal_lower 11
    u[3,2]     OBJ        0
    u[3,2]     primal_lower 21
    u[3,5]     OBJ        0
    u[3,5]     primal_lower 44
    u[3,7]     OBJ        0
    u[3,7]     primal_lower 78
    u[3,8]     OBJ        0
    u[3,8]     primal_lower 8
    u[4,0]     OBJ        0
    u[4,0]     primal_lower 31
    u[4,1]     OBJ        0
    u[4,1]     primal_lower 92
    u[4,2]     OBJ        0
    u[4,2]     primal_lower 89
    u[4,5]     OBJ        0
    u[4,5]     primal_lower 87
    u[4,6]     OBJ        0
    u[4,6]     primal_lower 45
    u[4,7]     OBJ        0
    u[4,7]     primal_lower 92
    u[4,8]     OBJ        0
    u[4,8]     primal_lower 10
    u[4,9]     OBJ        0
    u[4,9]     primal_lower 77
    u[5,0]     OBJ        0
    u[5,0]     primal_lower 21
    u[5,2]     OBJ        0
    u[5,2]     primal_lower 24
    u[5,3]     OBJ        0
    u[5,3]     primal_lower 89
    u[5,4]     OBJ        0
    u[5,4]     primal_lower 59
    u[5,7]     OBJ        0
    u[5,7]     primal_lower 82
    u[5,9]     OBJ        0
    u[5,9]     primal_lower 3
    u[6,0]     OBJ        0
    u[6,0]     primal_lower 71
    u[6,1]     OBJ        0
    u[6,1]     primal_lower 10
    u[6,2]     OBJ        0
    u[6,2]     primal_lower 39
    u[6,4]     OBJ        0
    u[6,4]     primal_lower 76
    u[6,7]     OBJ        0
    u[6,7]     primal_lower 80
    u[6,8]     OBJ        0
    u[6,8]     primal_lower 99
    u[6,9]     OBJ        0
    u[6,9]     primal_lower 18
    u[7,0]     OBJ        0
    u[7,0]     primal_lower 21
    u[7,1]     OBJ        0
    u[7,1]     primal_lower 3
    u[7,2]     OBJ        0
    u[7,2]     primal_lower 55
    u[7,3]     OBJ        0
    u[7,3]     primal_lower 7
    u[7,4]     OBJ        0
    u[7,4]     primal_lower 81
    u[7,5]     OBJ        0
    u[7,5]     primal_lower 25
    u[7,6]     OBJ        0
    u[7,6]     primal_lower 6
    u[7,8]     OBJ        0
    u[7,8]     primal_lower 96
    u[8,0]     OBJ        0
    u[8,0]     primal_lower 5
    u[8,1]     OBJ        0
    u[8,1]     primal_lower 100
    u[8,2]     OBJ        0
    u[8,2]     primal_lower 23
    u[8,3]     OBJ        0
    u[8,3]     primal_lower 63
    u[8,4]     OBJ        0
    u[8,4]     primal_lower 27
    u[8,6]     OBJ        0
    u[8,6]     primal_lower 23
    u[8,7]     OBJ        0
    u[8,7]     primal_lower 36
    u[9,0]     OBJ        0
    u[9,0]     primal_lower 54
    u[9,2]     OBJ        0
    u[9,2]     primal_lower 59
    u[9,4]     OBJ        0
    u[9,4]     primal_lower 31
    u[9,5]     OBJ        0
    u[9,5]     primal_lower 76
    u[9,6]     OBJ        0
    u[9,6]     primal_lower 56
    MARKER    'MARKER'                 'INTEND'
RHS
    RHS       primal_lower 318
BOUNDS
 LI BND       y[0,1]     0
 UI BND       y[0,1]     1
 LI BND       y[0,2]     0
 UI BND       y[0,2]     1
 LI BND       y[0,3]     0
 UI BND       y[0,3]     1
 LI BND       y[0,4]     0
 UI BND       y[0,4]     1
 LI BND       y[0,5]     0
 UI BND       y[0,5]     1
 LI BND       y[0,6]     0
 UI BND       y[0,6]     1
 LI BND       y[0,7]     0
 UI BND       y[0,7]     1
 LI BND       y[0,8]     0
 UI BND       y[0,8]     1
 LI BND       y[0,9]     0
 UI BND       y[0,9]     1
 LI BND       y[1,0]     0
 UI BND       y[1,0]     1
 LI BND       y[1,2]     0
 UI BND       y[1,2]     1
 LI BND       y[1,3]     0
 UI BND       y[1,3]     1
 LI BND       y[1,4]     0
 UI BND       y[1,4]     1
 LI BND       y[1,6]     0
 UI BND       y[1,6]     1
 LI BND       y[1,7]     0
 UI BND       y[1,7]     1
 LI BND       y[1,8]     0
 UI BND       y[1,8]     1
 LI BND       y[2,0]     0
 UI BND       y[2,0]     1
 LI BND       y[2,1]     0
 UI BND       y[2,1]     1
 LI BND       y[2,3]     0
 UI BND       y[2,3]     1
 LI BND       y[2,4]     0
 UI BND       y[2,4]     1
 LI BND       y[2,5]     0
 UI BND       y[2,5]     1
 LI BND       y[2,6]     0
 UI BND       y[2,6]     1
 LI BND       y[2,7]     0
 UI BND       y[2,7]     1
 LI BND       y[2,8]     0
 UI BND       y[2,8]     1
 LI BND       y[2,9]     0
 UI BND       y[2,9]     1
 LI BND       y[3,0]     0
 UI BND       y[3,0]     1
 LI BND       y[3,1]     0
 UI BND       y[3,1]     1
 LI BND       y[3,2]     0
 UI BND       y[3,2]     1
 LI BND       y[3,5]     0
 UI BND       y[3,5]     1
 LI BND       y[3,7]     0
 UI BND       y[3,7]     1
 LI BND       y[3,8]     0
 UI BND       y[3,8]     1
 LI BND       y[4,0]     0
 UI BND       y[4,0]     1
 LI BND       y[4,1]     0
 UI BND       y[4,1]     1
 LI BND       y[4,2]     0
 UI BND       y[4,2]     1
 LI BND       y[4,5]     0
 UI BND       y[4,5]     1
 LI BND       y[4,6]     0
 UI BND       y[4,6]     1
 LI BND       y[4,7]     0
 UI BND       y[4,7]     1
 LI BND       y[4,8]     0
 UI BND       y[4,8]     1
 LI BND       y[4,9]     0
 UI BND       y[4,9]     1
 LI BND       y[5,0]     0
 UI BND       y[5,0]     1
 LI BND       y[5,2]     0
 UI BND       y[5,2]     1
 LI BND       y[5,3]     0
 UI BND       y[5,3]     1
 LI BND       y[5,4]     0
 UI BND       y[5,4]     1
 LI BND       y[5,7]     0
 UI BND       y[5,7]     1
 LI BND       y[5,9]     0
 UI BND       y[5,9]     1
 LI BND       y[6,0]     0
 UI BND       y[6,0]     1
 LI BND       y[6,1]     0
 UI BND       y[6,1]     1
 LI BND       y[6,2]     0
 UI BND       y[6,2]     1
 LI BND       y[6,4]     0
 UI BND       y[6,4]     1
 LI BND       y[6,7]     0
 UI BND       y[6,7]     1
 LI BND       y[6,8]     0
 UI BND       y[6,8]     1
 LI BND       y[6,9]     0
 UI BND       y[6,9]     1
 LI BND       y[7,0]     0
 UI BND       y[7,0]     1
 LI BND       y[7,1]     0
 UI BND       y[7,1]     1
 LI BND       y[7,2]     0
 UI BND       y[7,2]     1
 LI BND       y[7,3]     0
 UI BND       y[7,3]     1
 LI BND       y[7,4]     0
 UI BND       y[7,4]     1
 LI BND       y[7,5]     0
 UI BND       y[7,5]     1
 LI BND       y[7,6]     0
 UI BND       y[7,6]     1
 LI BND       y[7,8]     0
 UI BND       y[7,8]     1
 LI BND       y[8,0]     0
 UI BND       y[8,0]     1
 LI BND       y[8,1]     0
 UI BND       y[8,1]     1
 LI BND       y[8,2]     0
 UI BND       y[8,2]     1
 LI BND       y[8,3]     0
 UI BND       y[8,3]     1
 LI BND       y[8,4]     0
 UI BND       y[8,4]     1
 LI BND       y[8,6]     0
 UI BND       y[8,6]     1
 LI BND       y[8,7]     0
 UI BND       y[8,7]     1
 LI BND       y[9,0]     0
 UI BND       y[9,0]     1
 LI BND       y[9,2]     0
 UI BND       y[9,2]     1
 LI BND       y[9,4]     0
 UI BND       y[9,4]     1
 LI BND       y[9,5]     0
 UI BND       y[9,5]     1
 LI BND       y[9,6]     0
 UI BND       y[9,6]     1
 LI BND       u[0,1]     0
 UI BND       u[0,1]     1
 LI BND       u[0,2]     0
 UI BND       u[0,2]     1
 LI BND       u[0,3]     0
 UI BND       u[0,3]     1
 LI BND       u[0,4]     0
 UI BND       u[0,4]     1
 LI BND       u[0,5]     0
 UI BND       u[0,5]     1
 LI BND       u[0,6]     0
 UI BND       u[0,6]     1
 LI BND       u[0,7]     0
 UI BND       u[0,7]     1
 LI BND       u[0,8]     0
 UI BND       u[0,8]     1
 LI BND       u[0,9]     0
 UI BND       u[0,9]     1
 LI BND       u[1,0]     0
 UI BND       u[1,0]     1
 LI BND       u[1,2]     0
 UI BND       u[1,2]     1
 LI BND       u[1,3]     0
 UI BND       u[1,3]     1
 LI BND       u[1,4]     0
 UI BND       u[1,4]     1
 LI BND       u[1,6]     0
 UI BND       u[1,6]     1
 LI BND       u[1,7]     0
 UI BND       u[1,7]     1
 LI BND       u[1,8]     0
 UI BND       u[1,8]     1
 LI BND       u[2,0]     0
 UI BND       u[2,0]     1
 LI BND       u[2,1]     0
 UI BND       u[2,1]     1
 LI BND       u[2,3]     0
 UI BND       u[2,3]     1
 LI BND       u[2,4]     0
 UI BND       u[2,4]     1
 LI BND       u[2,5]     0
 UI BND       u[2,5]     1
 LI BND       u[2,6]     0
 UI BND       u[2,6]     1
 LI BND       u[2,7]     0
 UI BND       u[2,7]     1
 LI BND       u[2,8]     0
 UI BND       u[2,8]     1
 LI BND       u[2,9]     0
 UI BND       u[2,9]     1
 LI BND       u[3,0]     0
 UI BND       u[3,0]     1
 LI BND       u[3,1]     0
 UI BND       u[3,1]     1
 LI BND       u[3,2]     0
 UI BND       u[3,2]     1
 LI BND       u[3,5]     0
 UI BND       u[3,5]     1
 LI BND       u[3,7]     0
 UI BND       u[3,7]     1
 LI BND       u[3,8]     0
 UI BND       u[3,8]     1
 LI BND       u[4,0]     0
 UI BND       u[4,0]     1
 LI BND       u[4,1]     0
 UI BND       u[4,1]     1
 LI BND       u[4,2]     0
 UI BND       u[4,2]     1
 LI BND       u[4,5]     0
 UI BND       u[4,5]     1
 LI BND       u[4,6]     0
 UI BND       u[4,6]     1
 LI BND       u[4,7]     0
 UI BND       u[4,7]     1
 LI BND       u[4,8]     0
 UI BND       u[4,8]     1
 LI BND       u[4,9]     0
 UI BND       u[4,9]     1
 LI BND       u[5,0]     0
 UI BND       u[5,0]     1
 LI BND       u[5,2]     0
 UI BND       u[5,2]     1
 LI BND       u[5,3]     0
 UI BND       u[5,3]     1
 LI BND       u[5,4]     0
 UI BND       u[5,4]     1
 LI BND       u[5,7]     0
 UI BND       u[5,7]     1
 LI BND       u[5,9]     0
 UI BND       u[5,9]     1
 LI BND       u[6,0]     0
 UI BND       u[6,0]     1
 LI BND       u[6,1]     0
 UI BND       u[6,1]     1
 LI BND       u[6,2]     0
 UI BND       u[6,2]     1
 LI BND       u[6,4]     0
 UI BND       u[6,4]     1
 LI BND       u[6,7]     0
 UI BND       u[6,7]     1
 LI BND       u[6,8]     0
 UI BND       u[6,8]     1
 LI BND       u[6,9]     0
 UI BND       u[6,9]     1
 LI BND       u[7,0]     0
 UI BND       u[7,0]     1
 LI BND       u[7,1]     0
 UI BND       u[7,1]     1
 LI BND       u[7,2]     0
 UI BND       u[7,2]     1
 LI BND       u[7,3]     0
 UI BND       u[7,3]     1
 LI BND       u[7,4]     0
 UI BND       u[7,4]     1
 LI BND       u[7,5]     0
 UI BND       u[7,5]     1
 LI BND       u[7,6]     0
 UI BND       u[7,6]     1
 LI BND       u[7,8]     0
 UI BND       u[7,8]     1
 LI BND       u[8,0]     0
 UI BND       u[8,0]     1
 LI BND       u[8,1]     0
 UI BND       u[8,1]     1
 LI BND       u[8,2]     0
 UI BND       u[8,2]     1
 LI BND       u[8,3]     0
 UI BND       u[8,3]     1
 LI BND       u[8,4]     0
 UI BND       u[8,4]     1
 LI BND       u[8,6]     0
 UI BND       u[8,6]     1
 LI BND       u[8,7]     0
 UI BND       u[8,7]     1
 LI BND       u[9,0]     0
 UI BND       u[9,0]     1
 LI BND       u[9,2]     0
 UI BND       u[9,2]     1
 LI BND       u[9,4]     0
 UI BND       u[9,4]     1
 LI BND       u[9,5]     0
 UI BND       u[9,5]     1
 LI BND       u[9,6]     0
 UI BND       u[9,6]     1
ENDATA
